50
1000 1000
1 785 97
2 763 924
3 748 70
4 740 255
5 740 668
6 732 239
7 684 96
8 677 281
9 652 419
10 641 343
11 636 986
12 634 175
13 603 241
14 570 906
15 562 42
16 552 632
17 550 264
18 529 51
19 521 942
20 519 203
21 496 749
22 463 136
23 455 284
24 448 971
25 430 413
26 419 20
27 382 318
28 380 443
29 372 813
30 372 846
31 365 6
32 353 68
33 351 975
34 348 50
35 347 701
36 323 989
37 316 131
38 312 49
39 291 434
40 273 757
41 247 611
42 235 155
43 219 176
44 210 226
45 189 555
46 178 491
47 177 76
48 132 730
49 124 385
50 108 386
